; benchmark generated from python API
(set-info :status unknown)
(declare-fun S_4 () Real)
(declare-fun L_2 () Real)
(declare-fun A_2 () Real)
(declare-fun A_3 () Real)
(declare-fun A_4 () Real)
(declare-fun A_1 () Real)
(declare-fun A_0 () Real)
(declare-fun S_3 () Real)
(declare-fun S_2 () Real)
(declare-fun S_1 () Real)
(declare-fun S_0 () Real)
(declare-fun C () Real)
(declare-fun L_1 () Real)
(declare-fun B () Real)
(declare-fun L_0 () Real)
(declare-fun a () Real)
(declare-fun L0 () Real)
(assert
 (exists ((I_0 Real) (I_1 Real) (I_2 Real) (I_3 Real) (I_4 Real) (L_3 Real) (L_4 Real) )(let ((?x93 (- A_2 L_2)))
 (let (($x127 (<= ?x93 S_4)))
 (let (($x125 (>= A_4 A_3)))
 (let (($x124 (>= A_3 A_2)))
 (let (($x123 (>= A_2 A_1)))
 (let (($x122 (>= A_1 A_0)))
 (let (($x120 (>= S_4 S_3)))
 (let (($x117 (>= S_3 S_2)))
 (let (($x114 (>= S_2 S_1)))
 (let (($x111 (>= S_1 S_0)))
 (let ((?x149 (- A_4 L_4)))
 (let ((?x86 (* C 1.0)))
 (let ((?x150 (+ I_3 ?x86)))
 (let (($x157 (= I_3 (ite (< (+ I_2 ?x86) (- A_3 L_3)) (+ I_2 ?x86) (- A_3 L_3)))))
 (let ((?x88 (- A_1 L_1)))
 (let ((?x162 (+ I_0 ?x86)))
 (let (($x169 (> (- (- A_4 L_3) I_4) B)))
 (let (($x178 (> (- (- A_3 L_2) I_3) B)))
 (let (($x186 (> (- (- A_2 L_1) I_2) B)))
 (let (($x194 (> (- (- A_1 L_0) I_1) B)))
 (let (($x45 (= a 1.0)))
 (let ((?x41 (* 5.0 a)))
 (let (($x43 (>= B ?x41)))
 (let (($x42 (>= C ?x41)))
 (let (($x37 (>= L0 0.0)))
 (let (($x36 (>= L_0 L0)))
 (let (($x35 (>= L_0 0.0)))
 (and $x35 $x36 $x37 (<= I_0 (- A_0 L_0)) $x42 $x43 $x45 (=> $x194 (= L_1 (- (- A_1 I_1) B))) (=> (not $x194) (= L_1 L_0)) (=> $x186 (= L_2 (- (- A_2 I_2) B))) (=> (not $x186) (= L_2 L_1)) (=> $x178 (= L_3 (- (- A_3 I_3) B))) (=> (not $x178) (= L_3 L_2)) (=> $x169 (= L_4 (- (- A_4 I_4) B))) (=> (not $x169) (= L_4 L_3)) (= I_1 (ite (< ?x162 ?x88) ?x162 ?x88)) (= I_2 (ite (< (+ I_1 ?x86) ?x93) (+ I_1 ?x86) ?x93)) $x157 (= I_4 (ite (< ?x150 ?x149) ?x150 ?x149)) (>= S_0 (- I_0 ?x86)) (<= S_0 I_0) (>= S_1 I_0) $x111 (<= S_1 I_1) (>= S_2 I_1) $x114 (<= S_2 I_2) (>= S_3 I_2) $x117 (<= S_3 I_3) (>= S_4 I_3) $x120 (<= S_4 I_4) $x122 $x123 $x124 $x125 (> (- A_3 L_3) S_4) $x127)))))))))))))))))))))))))))))
 )
(check-sat)
